-	1	2	3	4	5	6	7	8	9	10
1 0,00	0,50	0,75	1,00	0,75	1,50	1,00	1,50	1,25	1,50
2 0,50	0,00	1,25	1,00	1,50	0,80	1,20	1,75	1,25	1,00
3 0,75	1,25	0,00	0,50	1,25	0,75	1,50	1,50	1,75	1,00
4 1,00	1,00	0,50	0,00	1,00	1,40	1,00	1,25	1,30	1,50
5 0,75	1,50	1,25	1,00	0,00	1,00	1,50	1,55	1,50	1,30
6 1,50	0,80	0,75	1,40	1,00	0,00	1,50	1,00	0,75	1,75
7 1,00	1,20	1,50	1,00	1,50	1,50	0,00	1,50	1,40	1,60
8 1,50	1,75	1,50	1,25	1,55	1,00	1,50	0,00	0,50	0,75
9 1,25	1,25	1,75	1,30	1,50	0,75	1,40	0,50	0,00	1,25
10  1,50	1,00	1,00	1,50	1,30	1,75	1,60	0,75	1,25	0,00
